SCIP version 5.0.0 [precision: 8 byte] [memory: block] [mode: optimized] [LP solver: NONE] [GitHash: 3bbd232]
Copyright (C) 2002-2017 Konrad-Zuse-Zentrum fuer Informationstechnik Berlin (ZIB)

External codes: 
  Readline EditLine w  GNU library for command line editing (gnu.org/s/readline)
  CppAD 20160000.1     Algorithmic Differentiation of C++ algorithms developed by B. Bell (www.coin-or.org/CppAD)
  ZLIB 1.2.5           General purpose compression library by J. Gailly and M. Adler (zlib.net)
  GMP 6.1.2            GNU Multiple Precision Arithmetic Library developed by T. Granlund (gmplib.org)

user parameter file <scip.set> not found - using default parameters

read problem <../../Split_data/output/statG/8/3_sample_statG.logreg>
============

File name	:	../../Split_data/output/statG/8/3_sample_statG.logreg
Problem name 	:	3_sample_statG
Number of data	:	800
Number of var	:	61
The given data has linear dependence
13 sets of column vector are linearly dependent:

[dim=1] time: 0.036218
[dim=2] time: 0.08126
[dim=3] time: 0.120327
[dim=4] time: 0.158663
[dim=5] time: 0.198051
[dim=6] time: 0.241319
[dim=7] time: 0.290972
[dim=8] time: 0.339527
[dim=9] time: 0.388053
[dim=10] time: 0.429446
[dim=11] time: 0.469972
[dim=12] time: 0.508775
[dim=13] time: 0.5479
[dim=14] time: 0.58592
[dim=15] time: 0.624649
[dim=16] time: 0.670477
[dim=17] time: 0.709066
[dim=18] time: 0.745364
[dim=19] time: 0.78315
[dim=20] time: 0.820048
[dim=21] time: 0.857161
[dim=22] time: 0.89351
[dim=23] time: 0.930869
[dim=24] Time of forward = 0.964829sec.
AIC: 766.353
k: 23

[dim=48] time: 0.107782
[dim=47] time: 0.168731
[dim=46] time: 0.245502
[dim=45] time: 0.31544
[dim=44] time: 0.386462
[dim=43] time: 0.441162
[dim=42] time: 0.500209
[dim=41] time: 0.562012
[dim=40] time: 0.623954
[dim=39] time: 0.675995
[dim=38] time: 0.722362
[dim=37] time: 0.769417
[dim=36] time: 0.813979
[dim=35] time: 0.858565
[dim=34] time: 0.899977
[dim=33] time: 0.937426
[dim=32] time: 0.983215
[dim=31] time: 1.02442
[dim=30] time: 1.06288
[dim=29] time: 1.10358
[dim=28] Time of backward = 1.1384sec.
AIC: 771.905
k: 29
